Version identifier: 20.1.0.0 | 2020-11-10 | 9bedb6d68
Tried aggregator 10 times.
MIP Presolve eliminated 1175 rows and 790 columns.
MIP Presolve modified 1200 coefficients.
Aggregator did 188 substitutions.
All rows and columns eliminated.
Presolve time = 0.01 sec. (3.70 ticks)

Root node processing (before b&c):
  Real time             =    0.01 sec. (3.85 ticks)
Parallel b&c, 24 threads:
  Real time             =    0.00 sec. (0.00 ticks)
  Sync time (average)   =    0.00 sec.
  Wait time (average)   =    0.00 sec.
                          ------------
Total (root+branch&cut) =    0.01 sec. (3.85 ticks)

Solution status = Optimal
Solution LB = 5
Solution UB = 5
Runtime = 0.0113001 seconds
	Command being timed: "/home/min/git_repos/CS598MEBProject/CNT-ILP/build/cnt -s 2 ./output/k4_n40/simC_c1_k4_n40_u2_s1_del04.input-right.cnp"
	User time (seconds): 0.01
	System time (seconds): 0.01
	Percent of CPU this job got: 95%
	Elapsed (wall clock) time (h:mm:ss or m:ss): 0:00.02
	Average shared text size (kbytes): 0
	Average unshared data size (kbytes): 0
	Average stack size (kbytes): 0
	Average total size (kbytes): 0
	Maximum resident set size (kbytes): 16504
	Average resident set size (kbytes): 0
	Major (requiring I/O) page faults: 0
	Minor (reclaiming a frame) page faults: 1128
	Voluntary context switches: 90
	Involuntary context switches: 1
	Swaps: 0
	File system inputs: 0
	File system outputs: 16
	Socket messages sent: 0
	Socket messages received: 0
	Signals delivered: 0
	Page size (bytes): 4096
	Exit status: 0
